p cnf 50 25
-8 35 16 0
31 -4 39 0
24 46 -30 0
-1 35 -8 0
13 -34 35 0
23 17 14 0
-5 -17 -12 0
41 -2 -16 0
5 45 43 0
41 22 12 0
-32 -48 -47 0
-13 6 1 0
-44 -5 -19 0
39 46 -27 0
-31 19 -3 0
-45 10 -28 0
12 48 44 0
-15 22 29 0
9 -49 39 0
35 3 -33 0
27 -9 2 0
34 39 15 0
-46 -7 44 0
17 31 -2 0
19 6 -31 0
